(set-logic QF_NRA)
(declare-fun skoY () Real)
(declare-fun skoZ () Real)
(declare-fun skoX () Real)
(assert (and (not (<= (+ (* 60 skoY) (* 60 skoZ) (* 60 skoX) (* 468 (* skoX skoX)) (* (- 24) (* skoY skoX)) (* 468 (* skoY skoY)) (* (- 24) (* skoY skoZ)) (* (- 24) (* skoZ skoX)) (* 468 (* skoZ skoZ)) (* (- 79) (* skoX skoX skoX)) (* 243 (* skoY skoX skoX)) (* 243 (* skoY skoY skoX)) (* (- 79) (* skoY skoY skoY)) (* 6 (* skoY skoZ skoX)) (* 243 (* skoZ skoX skoX)) (* 243 (* skoY skoY skoZ)) (* 243 (* skoY skoZ skoZ)) (* 243 (* skoZ skoZ skoX)) (* (- 79) (* skoZ skoZ skoZ)) (* 8 (* skoX skoX skoX skoX)) (* (- 64) (* skoY skoX skoX skoX)) (* (- 144) (* skoY skoY skoX skoX)) (* (- 64) (* skoY skoY skoY skoX)) (* 8 (* skoY skoY skoY skoY)) (* 96 (* skoY skoZ skoX skoX)) (* 96 (* skoY skoY skoZ skoX)) (* 96 (* skoY skoZ skoZ skoX)) (* (- 64) (* skoZ skoX skoX skoX)) (* (- 64) (* skoY skoY skoY skoZ)) (* (- 144) (* skoZ skoZ skoX skoX)) (* (- 144) (* skoY skoY skoZ skoZ)) (* (- 64) (* skoY skoZ skoZ skoZ)) (* (- 64) (* skoZ skoZ skoZ skoX)) (* 8 (* skoZ skoZ skoZ skoZ)) (* 8 (* skoY skoX skoX skoX skoX)) (* 24 (* skoY skoY skoX skoX skoX)) (* 24 (* skoY skoY skoY skoX skoX)) (* 8 (* skoY skoY skoY skoY skoX)) (* (- 40) (* skoY skoZ skoX skoX skoX)) (* (- 96) (* skoY skoY skoZ skoX skoX)) (* (- 40) (* skoY skoY skoY skoZ skoX)) (* (- 96) (* skoY skoZ skoZ skoX skoX)) (* (- 96) (* skoY skoY skoZ skoZ skoX)) (* (- 40) (* skoY skoZ skoZ skoZ skoX)) (* 8 (* skoZ skoX skoX skoX skoX)) (* 8 (* skoY skoY skoY skoY skoZ)) (* 24 (* skoZ skoZ skoX skoX skoX)) (* 24 (* skoY skoY skoY skoZ skoZ)) (* 24 (* skoZ skoZ skoZ skoX skoX)) (* 24 (* skoY skoY skoZ skoZ skoZ)) (* 8 (* skoY skoZ skoZ skoZ skoZ)) (* 8 (* skoZ skoZ skoZ skoZ skoX)) (* 8 (* skoY skoZ skoX skoX skoX skoX)) (* 24 (* skoY skoY skoZ skoX skoX skoX)) (* 24 (* skoY skoY skoY skoZ skoX skoX)) (* 8 (* skoY skoY skoY skoY skoZ skoX)) (* 24 (* skoY skoZ skoZ skoX skoX skoX)) (* 48 (* skoY skoY skoZ skoZ skoX skoX)) (* 24 (* skoY skoY skoY skoZ skoZ skoX)) (* 24 (* skoY skoZ skoZ skoZ skoX skoX)) (* 24 (* skoY skoY skoZ skoZ skoZ skoX)) (* 8 (* skoY skoZ skoZ skoZ skoZ skoX))) 120)) (not (<= (+ (* 60 skoY) (* 60 skoZ) (* (- 60) skoX) (* 12 (* skoX skoX)) (* (- 36) (* skoY skoX)) (* (- 48) (* skoY skoY)) (* 24 (* skoY skoZ)) (* (- 36) (* skoZ skoX)) (* (- 48) (* skoZ skoZ)) (* (- 1) (* skoX skoX skoX)) (* 9 (* skoY skoX skoX)) (* 21 (* skoY skoY skoX)) (* 11 (* skoY skoY skoY)) (* (- 18) (* skoY skoZ skoX)) (* 9 (* skoZ skoX skoX)) (* (- 27) (* skoY skoY skoZ)) (* (- 27) (* skoY skoZ skoZ)) (* 21 (* skoZ skoZ skoX)) (* 11 (* skoZ skoZ skoZ)) (* (- 1) (* skoY skoX skoX skoX)) (* (- 3) (* skoY skoY skoX skoX)) (* (- 3) (* skoY skoY skoY skoX)) (* (- 1) (* skoY skoY skoY skoY)) (* 6 (* skoY skoZ skoX skoX)) (* 15 (* skoY skoY skoZ skoX)) (* 15 (* skoY skoZ skoZ skoX)) (* (- 1) (* skoZ skoX skoX skoX)) (* 8 (* skoY skoY skoY skoZ)) (* (- 3) (* skoZ skoZ skoX skoX)) (* 18 (* skoY skoY skoZ skoZ)) (* 8 (* skoY skoZ skoZ skoZ)) (* (- 3) (* skoZ skoZ skoZ skoX)) (* (- 1) (* skoZ skoZ skoZ skoZ)) (* (- 1) (* skoY skoZ skoX skoX skoX)) (* (- 3) (* skoY skoY skoZ skoX skoX)) (* (- 3) (* skoY skoY skoY skoZ skoX)) (* (- 3) (* skoY skoZ skoZ skoX skoX)) (* (- 6) (* skoY skoY skoZ skoZ skoX)) (* (- 3) (* skoY skoZ skoZ skoZ skoX)) (* (- 1) (* skoY skoY skoY skoY skoZ)) (* (- 3) (* skoY skoY skoY skoZ skoZ)) (* (- 3) (* skoY skoY skoZ skoZ skoZ)) (* (- 1) (* skoY skoZ skoZ skoZ skoZ))) (- 120)))))
(set-info :status sat)
(check-sat)
